results/res_prop_muc/res_Cimatti_mathsat_cores/QF_LRA/uart-6.base.cvc.smt.smt2.res
unsat
( c1003
  c1010
  c1011
  c1018
  c1023
  c103
  c1039
  c104
  c106
  c109
  c1090
  c1096
  c1100
  c1103
  c1106
  c111
  c1126
  c1131
  c1139
  c1160
  c1167
  c1169
  c1177
  c1180
  c1181
  c1182
  c1183
  c1184
  c1185
  c1188
  c1218
  c1219
  c1221
  c1224
  c1238
  c1245
  c1253
  c1274
  c1324
  c1331
  c1332
  c1335
  c1338
  c1341
  c1342
  c1395
  c1402
  c1412
  c1415
  c1423
  c1453
  c1459
  c1473
  c1480
  c1488
  c1509
  c1522
  c298
  c305
  c306
  c31
  c313
  c318
  c32
  c33
  c334
  c383
  c389
  c395
  c398
  c401
  c402
  c423
  c426
  c429
  c440
  c477
  c478
  c507
  c510
  c513
  c514
  c533
  c540
  c541
  c548
  c553
  c569
  c59
  c620
  c625
  c626
  c630
  c633
  c636
  c637
  c658
  c661
  c669
  c670
  c690
  c692
  c697
  c699
  c707
  c710
  c711
  c712
  c713
  c715
  c734
  c742
  c745
  c748
  c749
  c75
  c751
  c768
  c775
  c776
  c783
  c788
  c804
  c855
  c861
  c865
  c868
  c871
  c872
  c893
  c896
  c899
  c904
  c910
  c925
  c932
  c934
  c942
  c945
  c946
  c947
  c948
  c950
  c959
  c976
  c977
  c980
  c983
  c984
  c985
  c986
  c989 )
